words_hard_train/7751.qaiger
aag 88 16 0 1 72
2
4
8
16
26
34
46
54
66
74
80
88
106
108
116
124
176
6 2 4
10 4 8
12 5 9
14 11 13
18 14 16
20 7 19
22 15 17
24 21 23
28 13 26
30 12 27
32 29 31
36 33 35
38 32 34
40 37 39
42 24 40
44 43 39
48 31 46
50 30 47
52 49 51
56 53 55
58 52 54
60 57 59
62 45 60
64 63 59
68 51 66
70 50 67
72 69 71
76 73 75
78 65 77
82 71 80
84 70 81
86 83 85
90 87 89
92 86 88
94 91 93
96 79 94
98 72 74
100 97 99
102 96 98
104 101 103
110 106 108
112 107 109
114 111 113
118 85 116
120 84 117
122 119 121
126 122 124
128 127 121
130 115 128
132 114 129
134 131 133
136 3 5
138 137 7
140 19 23
142 138 141
144 25 41
146 145 43
148 142 147
150 44 61
152 151 63
154 148 153
156 134 154
158 123 125
160 159 127
162 160 91
164 156 163
166 161 93
168 167 64
170 168 76
172 171 95
174 164 173
176 105 174
i0 2 y1[0]
i1 1 x2[0]
i2 1 x2[1]
i3 2 y1[1]
i4 1 x2[2]
i5 2 y1[2]
i6 1 x2[3]
i7 2 y1[3]
i8 1 x2[4]
i9 2 y1[4]
i10 1 x2[5]
i11 2 y1[5]
i12 2 y1[7]
i13 1 x2[7]
i14 1 x2[6]
i15 2 y1[6]
o0 bool[0]
c
simplified
  ==
    xor
      1
      << 6
        1
    subtract
      2 y1
      1 x2
