words_hard_train/7751.qaiger.qdimacs
p cnf 88 217
a 33 2 4 40 13 54 23 58 0
e 1 3 5 6 7 8 9 10 11 12 14 15 16 17 18 19 20 21 22 24 25 26 27 28 29 30 31 32 34 35 36 37 38 39 41 42 43 44 45 46 47 48 49 50 51 52 53 55 56 57 59 60 61 62 63 64 65 66 67 68 69 70 71 72 73 74 75 76 77 78 79 80 81 82 83 84 85 86 87 88 0
-1 -2 3 0
1 -3 0
2 -3 0
-2 -4 5 0
2 -5 0
4 -5 0
2 4 6 0
-2 -6 0
-4 -6 0
5 6 7 0
-5 -7 0
-6 -7 0
-7 -8 9 0
7 -9 0
8 -9 0
3 9 10 0
-3 -10 0
-9 -10 0
7 8 11 0
-7 -11 0
-8 -11 0
10 11 12 0
-10 -12 0
-11 -12 0
6 -13 14 0
-6 -14 0
13 -14 0
-6 13 15 0
6 -15 0
-13 -15 0
14 15 16 0
-14 -16 0
-15 -16 0
16 17 18 0
-16 -18 0
-17 -18 0
-16 -17 19 0
16 -19 0
17 -19 0
18 19 20 0
-18 -20 0
-19 -20 0
-12 -20 21 0
12 -21 0
20 -21 0
21 19 22 0
-21 -22 0
-19 -22 0
15 -23 24 0
-15 -24 0
23 -24 0
-15 23 25 0
15 -25 0
-23 -25 0
24 25 26 0
-24 -26 0
-25 -26 0
26 27 28 0
-26 -28 0
-27 -28 0
-26 -27 29 0
26 -29 0
27 -29 0
28 29 30 0
-28 -30 0
-29 -30 0
22 -30 31 0
-22 -31 0
30 -31 0
31 29 32 0
-31 -32 0
-29 -32 0
25 -33 34 0
-25 -34 0
33 -34 0
-25 33 35 0
25 -35 0
-33 -35 0
34 35 36 0
-34 -36 0
-35 -36 0
36 37 38 0
-36 -38 0
-37 -38 0
32 38 39 0
-32 -39 0
-38 -39 0
35 -40 41 0
-35 -41 0
40 -41 0
-35 40 42 0
35 -42 0
-40 -42 0
41 42 43 0
-41 -43 0
-42 -43 0
43 44 45 0
-43 -45 0
-44 -45 0
-43 -44 46 0
43 -46 0
44 -46 0
45 46 47 0
-45 -47 0
-46 -47 0
39 -47 48 0
-39 -48 0
47 -48 0
-36 -37 49 0
36 -49 0
37 -49 0
48 49 50 0
-48 -50 0
-49 -50 0
-48 -49 51 0
48 -51 0
49 -51 0
50 51 52 0
-50 -52 0
-51 -52 0
-53 -54 55 0
53 -55 0
54 -55 0
53 54 56 0
-53 -56 0
-54 -56 0
55 56 57 0
-55 -57 0
-56 -57 0
42 -58 59 0
-42 -59 0
58 -59 0
-42 58 60 0
42 -60 0
-58 -60 0
59 60 61 0
-59 -61 0
-60 -61 0
-61 -62 63 0
61 -63 0
62 -63 0
63 60 64 0
-63 -64 0
-60 -64 0
57 -64 65 0
-57 -65 0
64 -65 0
-57 64 66 0
57 -66 0
-64 -66 0
65 66 67 0
-65 -67 0
-66 -67 0
1 2 68 0
-1 -68 0
-2 -68 0
68 3 69 0
-68 -69 0
-3 -69 0
9 11 70 0
-9 -70 0
-11 -70 0
-69 70 71 0
69 -71 0
-70 -71 0
12 20 72 0
-12 -72 0
-20 -72 0
72 21 73 0
-72 -73 0
-21 -73 0
-71 73 74 0
71 -74 0
-73 -74 0
-22 30 75 0
22 -75 0
-30 -75 0
75 31 76 0
-75 -76 0
-31 -76 0
-74 76 77 0
74 -77 0
-76 -77 0
-67 -77 78 0
67 -78 0
77 -78 0
61 62 79 0
-61 -79 0
-62 -79 0
79 63 80 0
-79 -80 0
-63 -80 0
-80 45 81 0
80 -81 0
-45 -81 0
-78 81 82 0
78 -82 0
-81 -82 0
80 46 83 0
-80 -83 0
-46 -83 0
83 -32 84 0
-83 -84 0
32 -84 0
-84 -38 85 0
84 -85 0
38 -85 0
85 47 86 0
-85 -86 0
-47 -86 0
-82 86 87 0
82 -87 0
-86 -87 0
52 -87 88 0
-52 -88 0
87 -88 0
88 0
